c ---- [ banner ] ------------------------------------------------------------
c
c Kissat SAT Solver
c 
c Copyright (c) 2021-2024 Armin Biere University of Freiburg
c Copyright (c) 2019-2021 Armin Biere Johannes Kepler University Linz
c 
c Version 4.0.1 43f02cf3e992cb44653b35e5cb26f93281552ae0
c gcc (Ubuntu 13.2.0-23ubuntu4) 13.2.0 -W -Wall -O3 -DNDEBUG
c Thu Sep 12 12:27:46 CEST 2024 Linux abryzen9 6.8.0-41-generic x86_64
c
c ---- [ parsing ] -----------------------------------------------------------
c
c opened and reading DIMACS file:
c
c   /data/artifact/AMulet2.0_artifact/exp4/cnf_sopb_64/64_64_U_SP_WT_SE_GenMul_sopb.cnf
c
c parsed 'p cnf 29385 130102' header
c closing input after reading 2607271 bytes (2 MB)
c finished parsing after 0.02 seconds
c
c ---- [ options ] -----------------------------------------------------------
c
c --stable=0                       (different from default '1')
c
c ---- [ solving ] -----------------------------------------------------------
c
c  seconds switched rate     size/glue tier1  binary           remaining
c         MB reductions conflicts size  tier2     irredundant
c          level restarts redundant glue  trail           variables
c
c *  0.02 10 0 0 0  0 0   0   0 0.0 0 0 0 0 0% 11937 118163 29382 100%
c (  0.05 12 0 0 0  0 0   0   0 0.0 0 0 0 0 0% 11937 118163 29382 100%
c .  0.06 13 0 0 0  0 0   0   0 0.0 0 0 0 0 0% 11933 118163 29382 100%
c c  0.15 18 0 0 0  0 0   0   0 0.0 0 0 0 0 0% 16769 108761 26968 92%
c d  0.16 18 0 0 0  0 0   0   0 0.0 0 0 0 0 0% 11941 108761 26968 92%
c =  0.22 18 0 0 0  0 0   0   0 0.0 0 0 0 0 0% 12029 108758 26846 91%
c d  0.22 18 0 0 0  0 0   0   0 0.0 0 0 0 0 0% 11782 108758 26846 91%
c f  0.36 17 0 0 0  0 0   0   0 0.0 0 0 0 0 0% 17140 100321 29873 102%
c e  0.56 23 0 0 0  0 0   0   0 0.0 0 0 0 0 0% 10868 109044 20842 71%
c )  0.56 23 0 0 0  0 0   0   0 0.0 0 0 0 0 0% 10868 109044 20842 71%
c {  0.58 23 0 0 0  0 0   0   0 0.0 0 0 2 6 0% 10868 109044 20842 71%
c -  0.83 24 126 0 1 327 35 1000 679 3.6 18 5 3 10 17% 10990 109035 20842 71%
c -  0.94 24 375 0 2 384 39 2000 1413 3.7 16 4 3 9 18% 11053 109031 20842 71%
c c  1.13 22 400 0 2 457 43 2503 1854 3.6 16 4 2 9 17% 11082 108995 20836 71%
c d  1.13 22 400 0 2 457 43 2503 1853 3.6 16 4 2 9 17% 11070 108995 20836 71%
c u  1.15 22 400 0 2 457 43 2503 1581 3.6 16 4 2 9 17% 11088 108995 20836 71%
c v  1.18 22 400 0 2 457 43 2503 1347 3.6 16 4 2 9 17% 11088 108995 20836 71%
c w  1.20 22 400 0 2 457 43 2503 1347 3.6 16 4 2 9 17% 11088 108995 20836 71%
c x  1.21 22 400 0 2 457 43 2503 1346 3.6 16 4 2 9 17% 11180 108801 20836 71%
c =  1.27 22 400 0 2 457 43 2503 1346 3.6 16 4 2 9 17% 11326 108799 20763 71%
c
c  seconds   switched   rate       size/glue tier1    binary           remaining
c         MB  reductions conflicts       size  tier2      irredundant
c           level restarts    redundant    glue   trail           variables
c
c d  1.28 22 400 0 2 457 43 2503 1346 3.6 16 4 2 9 17% 11175 108799 20762 71%
c t  1.29 22 400 0 2 457 43 2503 1346 3.6 16 4 2 9 17% 11161 108799 20762 71%
c f  1.32 22 400 0 2 457 43 2503 1346 3.6 16 4 2 9 17% 11722 107653 21336 73%
c u  1.35 22 400 0 2 457 43 2503 1314 3.6 16 4 2 9 17% 11724 107653 21336 73%
c v  1.37 22 400 0 2 457 43 2503 1207 3.6 16 4 2 9 17% 11725 107653 21336 73%
c w  1.40 23 400 0 2 457 43 2503 1205 3.6 16 4 2 9 17% 11725 107653 21336 73%
c x  1.42 23 400 0 2 457 43 2503 1205 3.6 16 4 2 9 17% 11730 107643 21336 73%
c =  1.47 23 400 0 2 457 43 2503 1205 3.6 16 4 2 9 17% 11898 107643 21252 72%
c d  1.48 23 400 0 2 457 43 2503 1205 3.6 16 4 2 9 17% 11729 107643 21252 72%
c f  1.52 23 400 0 2 457 43 2503 1205 3.6 16 4 2 9 17% 12909 105849 21843 74%
c -  1.96 24 360 0 3 688 46 3416 1737 4.6 24 5 2 9 19% 12952 105849 21843 74%
c -  2.50 24 327 0 4 929 44 5148 2836 4.5 25 5 2 9 20% 13031 105836 21843 74%
c -  2.83 24 324 0 5 1084 39 7148 3964 4.2 23 5 2 8 20% 13150 105824 21843 74%
c c  3.12 24 315 0 5 1182 40 7709 4486 4.3 24 6 2 8 21% 13163 105709 21811 74%
c d  3.13 24 315 0 5 1182 40 7709 4458 4.3 24 6 2 8 21% 13099 105709 21811 74%
c u  3.16 24 315 0 5 1182 40 7709 3988 4.3 24 6 2 8 21% 13115 105709 21811 74%
c v  3.20 24 315 0 5 1182 40 7709 3425 4.3 24 6 2 8 21% 13116 105709 21811 74%
c w  3.29 24 315 0 5 1182 40 7709 3406 4.3 24 6 2 8 21% 13116 105709 21811 74%
c =  3.44 24 315 0 5 1182 40 7709 3406 4.3 24 6 2 8 21% 13720 105709 21509 73%
c d  3.45 24 315 0 5 1182 40 7709 3389 4.3 24 6 2 8 21% 13028 105709 21506 73%
c
c  seconds   switched    rate       size/glue tier1    binary           remaining
c         MB  reductions  conflicts       size  tier2      irredundant
c           level  restarts    redundant    glue   trail           variables
c
c t  3.47 24 315 0 5 1182 40 7709 3389 4.3 24 6 2 8 21% 13005 105709 21506 73%
c f  3.52 24 315 0 5 1182 40 7709 3389 4.3 24 6 2 8 21% 13281 105274 21651 74%
c u  3.63 24 315 0 5 1182 40 7709 3297 4.3 24 6 2 8 21% 13287 105274 21651 74%
c v  3.65 24 315 0 5 1182 40 7709 3213 4.3 24 6 2 8 21% 13287 105274 21651 74%
c w  3.72 24 315 0 5 1182 40 7709 3209 4.3 24 6 2 8 21% 13287 105274 21651 74%
c x  3.76 24 315 0 5 1182 40 7709 3209 4.3 24 6 2 8 21% 13294 104784 21651 74%
c =  3.91 24 315 0 5 1182 40 7709 3209 4.3 24 6 2 8 21% 14218 104784 21189 72%
c d  3.92 24 315 0 5 1182 40 7709 3184 4.3 24 6 2 8 21% 13148 104784 21188 72%
c t  3.94 24 315 0 5 1182 40 7709 3184 4.3 24 6 2 8 21% 13110 104784 21188 72%
c f  4.00 24 315 0 5 1182 40 7709 3184 4.3 24 6 2 8 21% 15535 101143 22402 76%
c -  4.60 24 308 0 6 1387 39 9384 4086 4.2 25 6 2 8 22% 15589 101142 22402 76%
c o  4.98 24 315 0 6 1492 39 10475 5007 4.0 26 6 2 8 22% 15624 101142 22402 76%
c -  5.45 24 304 0 7 1645 39 11836 5398 4.3 28 7 2 8 23% 15683 101141 22402 76%
c s  5.76 24 306 0 7 1730 40 12514 5944 4.6 31 7 2 8 23% 15719 96895 22402 76%
c e  5.90 24 306 0 7 1730 40 12514 5944 4.6 31 7 2 8 23% 14832 97619 21617 74%
c 2  5.90 24 306 0 7 1730 40 12514 5944 4.6 31 7 2 8 23% 14830 97619 21617 74%
c s  5.91 24 306 0 7 1730 40 12514 5944 4.6 31 7 2 8 23% 14839 97272 21617 74%
c e  5.92 24 306 0 7 1730 40 12514 5944 4.6 31 7 2 8 23% 14731 97332 21566 73%
c ^  5.92 24 306 0 7 1730 40 12514 5944 4.6 31 7 2 8 23% 14731 97332 21566 73%
c -  6.58 24 297 0 8 1917 38 14481 6298 4.5 31 7 2 8 24% 14799 97329 21566 73%
c
c  seconds   switched    rate        size/glue tier1    binary          remaining
c         MB  reductions   conflicts       size  tier2      irredundant
c           level  restarts     redundant    glue   trail          variables
c
c d  6.75 24 299 0 8 1954 37 15791 7240 4.4 30 7 2 8 23% 14337 97328 21259 72%
c u  6.81 24 299 0 8 1954 37 15791 6335 4.4 30 7 2 8 23% 14355 97328 21259 72%
c v  6.86 24 299 0 8 1954 37 15791 5431 4.4 30 7 2 8 23% 14359 97328 21259 72%
c w  6.94 24 299 0 8 1954 37 15791 5410 4.4 30 7 2 8 23% 14359 97328 21259 72%
c x  6.99 24 299 0 8 1954 37 15791 5409 4.4 30 7 2 8 23% 14362 97253 21259 72%
c =  7.23 24 299 0 8 1954 37 15791 5409 4.4 30 7 2 8 23% 15408 97245 20736 71%
c d  7.24 24 299 0 8 1954 37 15791 5353 4.4 30 7 2 8 23% 14249 97245 20736 71%
c t  7.27 24 299 0 8 1954 37 15791 5353 4.4 30 7 2 8 23% 14148 97245 20736 71%
c f  7.35 24 299 0 8 1954 37 15791 5353 4.4 30 7 2 8 23% 14234 97049 20788 71%
c c  7.43 24 299 0 8 1954 37 15791 5352 4.4 30 7 2 8 23% 14239 97041 20787 71%
c d  7.44 24 299 0 8 1954 37 15791 5352 4.4 30 7 2 8 23% 14237 97041 20787 71%
c u  7.48 24 299 0 8 1954 37 15791 5176 4.4 30 7 2 8 23% 14239 97041 20787 71%
c v  7.52 24 299 0 8 1954 37 15791 5081 4.4 30 7 2 8 23% 14240 97041 20787 71%
c w  7.59 24 299 0 8 1954 37 15791 5071 4.4 30 7 2 8 23% 14240 97041 20787 71%
c =  7.80 24 299 0 8 1954 37 15791 5071 4.4 30 7 2 8 23% 15522 97041 20146 69%
c d  7.81 24 299 0 8 1954 37 15791 5034 4.4 30 7 2 8 23% 13658 97041 20146 69%
c t  7.82 24 299 0 8 1954 37 15791 5034 4.4 30 7 2 8 23% 13650 97041 20146 69%
c f  7.84 24 299 0 8 1954 37 15791 5034 4.4 30 7 2 8 23% 13651 97028 20150 69%
c -  8.10 24 291 0 9 2051 36 17309 5593 4.3 29 7 2 8 23% 13711 97025 20150 69%
c -  8.58 24 301 0 10 2268 35 20309 7233 4.2 29 7 2 8 24% 13818 97011 20150 69%
c
c  seconds   switched     rate        size/glue tier1    binary          remaining
c         MB   reductions   conflicts       size  tier2      irredundant
c           level   restarts     redundant    glue   trail          variables
c
c o  8.61 24 297 0 10 2269 34 20670 7548 4.1 29 7 2 8 24% 13821 97011 20150 69%
c -  9.19 24 295 0 11 2541 34 23471 8813 4.1 29 7 2 8 24% 13902 97005 20150 69%
c s  9.72 24 291 0 11 2729 34 25019 10168 4.3 31 7 2 8 25% 13948 92976 20150 69%
c e  9.81 24 291 0 11 2729 34 25019 10168 4.3 31 7 2 8 25% 10979 96490 18513 63%
c s  9.83 24 291 0 11 2729 34 25019 10168 4.3 31 7 2 8 25% 11005 96224 18513 63%
c e  9.84 24 291 0 11 2729 34 25019 10168 4.3 31 7 2 8 25% 10980 96257 18499 63%
c ^  9.84 24 291 0 11 2729 34 25019 10168 4.3 31 7 2 8 25% 10980 96257 18499 63%
c - 10.36 24 287 0 12 2870 34 26790 9381 4.3 31 7 2 8 25% 11005 96253 18499 63%
c d 10.37 24 288 0 12 2870 34 26922 9475 4.3 30 7 2 8 25% 10687 96249 18300 62%
c u 10.43 24 288 0 12 2870 34 26922 8202 4.3 30 7 2 8 25% 10713 96249 18300 62%
c v 10.50 24 288 0 12 2870 34 26922 7272 4.3 30 7 2 8 25% 10715 96249 18300 62%
c w 10.51 24 288 0 12 2870 34 26922 7272 4.3 30 7 2 8 25% 10715 96249 18300 62%
c x 10.62 24 288 0 12 2870 34 26922 7271 4.3 30 7 2 8 25% 10782 94205 18300 62%
c = 10.93 24 288 0 12 2870 34 26922 7271 4.3 30 7 2 8 25% 13660 94205 16861 57%
c d 10.94 24 288 0 12 2870 34 26922 7082 4.3 30 7 2 8 25% 10673 94205 16861 57%
c t 10.96 24 288 0 12 2870 34 26922 7082 4.3 30 7 2 8 25% 10619 94205 16861 57%
c f 11.04 24 288 0 12 2870 34 26922 7082 4.3 30 7 2 8 25% 10683 94025 16896 58%
c u 11.09 24 288 0 12 2870 34 26922 6668 4.3 30 7 2 8 25% 10691 94025 16896 58%
c v 11.13 24 288 0 12 2870 34 26922 6522 4.3 30 7 2 8 25% 10694 94025 16896 58%
c w 11.14 24 288 0 12 2870 34 26922 6521 4.3 30 7 2 8 25% 10694 94025 16896 58%
c
c  seconds   switched     rate        size/glue tier1    binary          remaining
c         MB   reductions   conflicts       size  tier2      irredundant
c           level   restarts     redundant    glue   trail          variables
c
c x 11.27 24 288 0 12 2870 34 26922 6521 4.3 30 7 2 8 25% 10715 87649 16896 58%
c = 11.54 24 288 0 12 2870 34 26922 6521 4.3 30 7 2 8 25% 11353 87647 16577 56%
c d 11.55 24 288 0 12 2870 34 26922 6515 4.3 30 7 2 8 25% 10697 87647 16577 56%
c t 11.57 24 288 0 12 2870 34 26922 6515 4.3 30 7 2 8 25% 10678 87647 16577 56%
c f 11.60 24 288 0 12 2870 34 26922 6515 4.3 30 7 2 8 25% 10682 87623 16582 56%
c - 12.14 24 281 0 13 3055 32 30255 8428 4.1 29 7 2 8 24% 10753 87623 16582 56%
c - 12.98 24 284 0 14 3347 31 33860 10420 4.0 28 7 2 7 24% 10828 87622 16582 56%
c - 13.82 24 275 0 15 3623 30 37602 12147 4.0 28 7 2 7 24% 10884 87619 16582 56%
c o 14.70 24 270 0 15 3950 30 40707 14879 4.0 28 7 2 7 25% 10937 87617 16582 56%
c c 14.97 24 268 0 15 4025 30 41248 15356 4.0 28 7 2 7 25% 11055 87038 16482 56%
c d 14.97 24 268 0 15 4025 30 41248 15097 4.0 28 7 2 7 25% 10855 87038 16482 56%
c u 15.04 24 268 0 15 4025 30 41248 12879 4.0 28 7 2 7 25% 10880 87038 16482 56%
c v 15.12 24 268 0 15 4025 30 41248 11609 4.0 28 7 2 7 25% 10883 87038 16482 56%
c w 15.18 24 268 0 15 4025 30 41248 11609 4.0 28 7 2 7 25% 10883 87038 16482 56%
c x 15.27 24 268 0 15 4025 30 41248 11609 4.0 28 7 2 7 25% 10884 82843 16482 56%
c = 15.54 24 268 0 15 4025 30 41248 11609 4.0 28 7 2 7 25% 10886 82843 16481 56%
c d 15.55 24 268 0 15 4025 30 41248 11601 4.0 28 7 2 7 25% 10874 82843 16476 56%
c t 15.57 24 268 0 15 4025 30 41248 11601 4.0 28 7 2 7 25% 10846 82843 16476 56%
c f 15.58 24 268 0 15 4025 30 41248 11601 4.0 28 7 2 7 25% 10848 82835 16478 56%
c u 15.65 24 268 0 15 4025 30 41248 11207 4.0 28 7 2 7 25% 10853 82835 16478 56%
c
c  seconds   switched     rate         size/glue tier1    binary          remaining
c         MB   reductions   conflicts        size  tier2      irredundant
c           level   restarts      redundant    glue   trail          variables
c
c v 15.71 24 268 0 15 4025 30 41248 10810 4.0 28 7 2 7 25% 10854 82835 16478 56%
c w 15.83 24 268 0 15 4025 30 41248 10805 4.0 28 7 2 7 25% 10854 82835 16478 56%
c x 15.91 24 268 0 15 4025 30 41248 10805 4.0 28 7 2 7 25% 10857 82328 16478 56%
c t 15.93 24 268 0 15 4025 30 41248 10805 4.0 28 7 2 7 25% 10855 82328 16478 56%
c - 15.96 24 267 0 16 4026 30 41474 9646 4.0 28 7 2 7 25% 10870 82328 16478 56%
c - 16.43 24 269 0 17 4195 29 45475 11591 3.9 27 7 2 7 24% 10993 82325 16478 56%
c - 17.38 24 266 0 18 4567 29 49599 13634 3.9 27 7 2 7 24% 11074 82324 16478 56%
c s 17.87 24 266 0 18 4732 29 52123 15687 3.9 27 7 2 7 24% 11134 81355 16478 56%
c e 17.99 24 266 0 18 4732 29 52123 15687 3.9 27 7 2 7 24% 10078 82977 15916 54%
c 2 17.99 24 266 0 18 4732 29 52123 15687 3.9 27 7 2 7 24% 10076 82977 15916 54%
c s 18.00 24 266 0 18 4732 29 52123 15687 3.9 27 7 2 7 24% 10093 82505 15916 54%
c e 18.01 24 266 0 18 4732 29 52123 15687 3.9 27 7 2 7 24% 10072 82539 15905 54%
c ^ 18.01 24 266 0 18 4732 29 52123 15687 3.9 27 7 2 7 24% 10072 82539 15905 54%
c - 18.29 24 266 0 19 4833 28 53841 14013 3.8 27 7 2 6 24% 10130 82539 15905 54%
c - 19.23 24 259 0 20 5232 28 58200 15768 3.8 27 7 2 6 23% 10222 82539 15905 54%
c c 19.52 24 260 0 20 5333 28 58879 16387 3.8 27 7 2 6 24% 10429 81460 15739 54%
c d 19.52 24 260 0 20 5333 28 58879 16034 3.8 27 7 2 6 24% 10097 81460 15739 54%
c u 19.60 24 260 0 20 5333 28 58879 13536 3.8 27 7 2 6 24% 10116 81460 15739 54%
c v 19.67 24 260 0 20 5333 28 58879 12148 3.8 27 7 2 6 24% 10118 81460 15739 54%
c w 19.74 24 260 0 20 5333 28 58879 12146 3.8 27 7 2 6 24% 10118 81460 15739 54%
c
c  seconds   switched     rate         size/glue tier1    binary          remaining
c         MB   reductions   conflicts        size  tier2      irredundant
c           level   restarts      redundant    glue   trail          variables
c
c x 19.83 24 260 0 20 5333 28 58879 12138 3.8 27 7 2 6 24% 10125 80946 15739 54%
c = 20.15 24 260 0 20 5333 28 58879 12138 3.8 27 7 2 6 24% 10865 80946 15369 52%
c d 20.16 24 260 0 20 5333 28 58879 11986 3.8 27 7 2 6 24% 10061 80946 15354 52%
c t 20.18 24 260 0 20 5333 28 58879 11986 3.8 27 7 2 6 24% 10022 80946 15354 52%
c f 20.23 24 260 0 20 5333 28 58879 11986 3.8 27 7 2 6 24% 10033 80892 15361 52%
c c 20.30 24 260 0 20 5333 28 58879 11957 3.8 27 7 2 6 24% 10047 80836 15354 52%
c d 20.31 24 260 0 20 5333 28 58879 11957 3.8 27 7 2 6 24% 10033 80836 15354 52%
c u 20.39 24 260 0 20 5333 28 58879 11288 3.8 27 7 2 6 24% 10044 80836 15354 52%
c v 20.43 24 260 0 20 5333 28 58879 10988 3.8 27 7 2 6 24% 10044 80836 15354 52%
c w 20.54 24 260 0 20 5333 28 58879 10952 3.8 27 7 2 6 24% 10044 80836 15354 52%
c x 20.64 24 260 0 20 5333 28 58879 10950 3.8 27 7 2 6 24% 10062 79202 15354 52%
c = 20.98 24 260 0 20 5333 28 58879 10950 3.8 27 7 2 6 24% 11986 79202 14392 49%
c d 20.99 24 260 0 20 5333 28 58879 10734 3.8 27 7 2 6 24% 10023 79202 14391 49%
c t 21.01 24 260 0 20 5333 28 58879 10734 3.8 27 7 2 6 24% 9914 79202 14391 49%
c f 21.05 24 260 0 20 5333 28 58879 10734 3.8 27 7 2 6 24% 9931 79078 14409 49%
c - 21.57 24 260 0 21 5526 27 62672 12708 3.7 26 7 2 6 23% 9990 79078 14409 49%
c - 22.49 24 254 0 22 5900 27 67254 14959 3.6 25 7 2 6 23% 10075 79077 14409 49%
c o 23.35 24 250 0 22 6231 26 71296 18400 3.6 25 7 2 6 23% 10184 79075 14409 49%
c - 23.67 24 249 0 23 6357 27 71944 16833 3.6 26 7 2 6 23% 10189 79075 14409 49%
c - 25.00 24 244 0 24 6895 27 76740 16848 3.6 26 7 1 6 23% 10250 79073 14409 49%
c
c  seconds   switched     rate         size/glue tier1    binary          remaining
c         MB   reductions   conflicts        size  tier2      irredundant
c           level   restarts      redundant    glue   trail          variables
c
c d 25.60 24 242 0 24 7156 26 79939 19373 3.6 26 7 1 6 23% 10089 79073 14290 49%
c u 25.68 24 242 0 24 7156 26 79939 17087 3.6 26 7 1 6 23% 10117 79073 14290 49%
c v 25.81 24 242 0 24 7156 26 79939 14466 3.6 26 7 1 6 23% 10129 79073 14290 49%
c w 25.90 24 242 0 24 7156 26 79939 14463 3.6 26 7 1 6 23% 10129 79073 14290 49%
c x 26.00 24 242 0 24 7156 26 79939 14460 3.6 26 7 1 6 23% 10139 77369 14290 49%
c = 26.22 24 242 0 24 7156 26 79939 14460 3.6 26 7 1 6 23% 10685 77369 14017 48%
c d 26.23 24 242 0 24 7156 26 79939 13959 3.6 26 7 1 6 23% 10061 77369 14007 48%
c t 26.25 24 242 0 24 7156 26 79939 13959 3.6 26 7 1 6 23% 10006 77369 14007 48%
c f 26.28 24 242 0 24 7156 26 79939 13959 3.6 26 7 1 6 23% 10027 77215 14027 48%
c c 26.35 24 242 0 24 7156 26 79939 13888 3.6 26 7 1 6 23% 10092 76947 13992 48%
c d 26.36 24 242 0 24 7156 26 79939 13888 3.6 26 7 1 6 23% 10022 76947 13992 48%
c u 26.42 24 242 0 24 7156 26 79939 13271 3.6 26 7 1 6 23% 10028 76947 13992 48%
c v 26.50 24 242 0 24 7156 26 79939 12666 3.6 26 7 1 6 23% 10034 76947 13992 48%
c w 26.66 24 242 0 24 7156 26 79939 12592 3.6 26 7 1 6 23% 10034 76947 13992 48%
c x 26.78 24 242 0 24 7156 26 79939 12588 3.6 26 7 1 6 23% 10036 69296 13992 48%
c = 27.24 24 242 0 24 7156 26 79939 12588 3.6 26 7 1 6 23% 10652 69215 13677 47%
c d 27.25 24 242 0 24 7156 26 79939 12453 3.6 26 7 1 6 23% 9991 69215 13676 47%
c t 27.27 24 242 0 24 7156 26 79939 12453 3.6 26 7 1 6 23% 9922 69215 13676 47%
c f 27.29 24 242 0 24 7156 26 79939 12453 3.6 26 7 1 6 23% 9937 69123 13689 47%
c - 27.57 24 243 0 25 7285 26 81639 11409 3.6 26 7 1 6 23% 9965 69123 13689 47%
c
c  seconds   switched     rate         size/glue tier1    binary          remaining
c         MB   reductions   conflicts        size  tier2      irredundant
c           level   restarts      redundant    glue   trail          variables
c
c - 28.54 24 236 0 26 7701 26 86640 13118 3.5 26 7 1 6 23% 10043 69119 13689 47%
c i 28.87 24 231 0 26 7844 25 89759 15689 3.5 25 7 1 6 23% 10110 69119 13688 47%
c - 29.06 24 232 0 27 7907 25 91739 14601 3.5 25 7 1 6 23% 10168 69119 13688 47%
c i 29.18 24 231 0 27 7970 25 92356 15141 3.5 25 7 1 6 22% 10175 69119 13687 47%
c 2 29.62 24 229 0 27 8150 24 95782 18008 3.5 25 7 1 6 22% 10237 69118 13686 47%
c s 29.63 24 229 0 27 8150 24 95782 18008 3.5 25 7 1 6 22% 10238 67529 13686 47%
c e 29.77 24 229 0 27 8150 24 95782 18008 3.5 25 7 1 6 22% 6647 75755 11882 40%
c 2 29.77 24 229 0 27 8150 24 95782 18008 3.5 25 7 1 6 22% 6636 75755 11882 40%
c s 29.79 24 229 0 27 8150 24 95782 18008 3.5 25 7 1 6 22% 6658 74845 11882 40%
c e 29.81 24 229 0 27 8150 24 95782 18008 3.5 25 7 1 6 22% 6597 75006 11848 40%
c ^ 29.81 24 229 0 27 8150 24 95782 18008 3.5 25 7 1 6 22% 6597 75006 11848 40%
c - 30.25 24 228 0 28 8358 24 96935 10703 3.5 25 7 1 6 22% 6606 75006 11848 40%
c i 30.91 24 228 0 28 8734 25 99839 13255 3.5 25 7 1 6 23% 6639 75006 11847 40%
c - 31.57 24 227 0 29 9038 25 102228 13169 3.4 25 7 1 6 23% 6654 75006 11847 40%
c i 31.86 24 226 0 29 9171 25 103407 14225 3.4 25 7 1 6 23% 6668 75006 11846 40%
c i 31.86 24 226 0 29 9171 25 103421 14225 3.4 25 7 1 6 23% 6671 75006 11845 40%
c c 32.18 24 225 0 29 9301 25 104586 15280 3.4 25 7 1 6 23% 6725 74558 11784 40%
c d 32.19 24 225 0 29 9301 25 104586 14967 3.4 25 7 1 6 23% 6609 74552 11784 40%
c d 32.19 24 225 0 29 9301 25 104586 14960 3.4 25 7 1 6 23% 6603 74552 11781 40%
c u 32.25 24 225 0 29 9301 25 104586 13344 3.4 25 7 1 6 23% 6618 74552 11780 40%
c
c  seconds   switched     rate          size/glue tier1    binary         remaining
c         MB   reductions   conflicts         size  tier2     irredundant
c           level   restarts       redundant    glue   trail         variables
c
c v 32.35 24 225 0 29 9301 25 104586 11034 3.4 25 7 1 6 23% 6625 74552 11780 40%
c w 32.51 24 225 0 29 9301 25 104586 11016 3.4 25 7 1 6 23% 6625 74552 11780 40%
c x 32.60 24 225 0 29 9301 25 104586 11016 3.4 25 7 1 6 23% 6627 74517 11780 40%
c = 33.07 24 225 0 29 9301 25 104586 11016 3.4 25 7 1 6 23% 6877 74322 11634 40%
c d 33.08 24 225 0 29 9301 25 104586 10414 3.4 25 7 1 6 23% 6596 74321 11634 40%
c t 33.09 24 225 0 29 9301 25 104586 10414 3.4 25 7 1 6 23% 6527 74321 11634 40%
c f 33.18 24 225 0 29 9301 25 104586 10414 3.4 25 7 1 6 23% 6532 74276 11638 40%
c u 33.27 24 225 0 29 9301 25 104586 9927 3.4 25 7 1 6 23% 6533 74276 11638 40%
c v 33.33 24 225 0 29 9301 25 104586 9402 3.4 25 7 1 6 23% 6533 74276 11638 40%
c w 33.53 24 225 0 29 9301 25 104586 9261 3.4 25 7 1 6 23% 6533 74276 11638 40%
c t 34.01 24 225 0 29 9301 25 104586 9261 3.4 25 7 1 6 23% 6531 74276 11638 40%
c i 34.02 24 225 0 29 9301 25 104586 9261 3.4 25 7 1 6 23% 6531 74276 11638 40%
c i 34.07 24 226 0 29 9318 25 105417 9913 3.4 25 7 1 6 23% 6558 74273 11637 40%
c i 34.20 24 224 0 29 9406 25 106500 10890 3.4 25 7 1 6 23% 6568 74273 11636 40%
c - 34.29 24 221 0 30 9464 24 107613 10250 3.4 25 7 1 6 23% 6566 74273 11636 40%
c i 34.33 24 221 0 30 9495 24 107773 10403 3.3 25 7 1 6 23% 6569 74273 11635 40%
c i 34.35 24 220 0 30 9501 24 108208 10776 3.3 24 7 1 6 23% 6573 74273 11634 40%
c i 34.46 24 217 0 30 9557 24 109554 12037 3.3 24 7 1 6 23% 6579 74273 11633 40%
c i 34.51 24 216 0 30 9582 24 110047 12489 3.3 24 7 1 6 23% 6581 74273 11632 40%
c i 34.56 24 215 0 30 9613 24 110643 13055 3.3 24 7 1 6 22% 6585 74273 11631 40%
c
c  seconds   switched     rate          size/glue tier1    binary         remaining
c         MB   reductions   conflicts         size  tier2     irredundant
c           level   restarts       redundant    glue   trail         variables
c
c i 34.58 24 214 0 30 9635 24 110909 13285 3.3 24 7 1 6 22% 6588 74273 11630 40%
c i 34.64 24 213 0 30 9695 24 111273 13611 3.3 24 7 1 6 22% 6591 74273 11628 40%
c o 34.64 24 213 0 30 9696 24 111333 13668 3.3 24 7 1 6 22% 6592 74273 11628 40%
c i 34.71 24 211 0 30 9769 23 112420 14629 3.3 24 7 1 6 22% 6607 74273 11626 40%
c i 34.72 24 209 0 30 9769 23 113073 15126 3.3 24 7 1 6 22% 6645 74273 11587 39%
c i 34.72 24 209 0 30 9769 23 113081 15127 3.3 24 7 1 6 22% 6648 74273 11586 39%
c } 34.72 24 209 0 30 9769 23 113086 15127 3.3 24 7 1 6 22% 6649 74273 11583 39%
c 0 34.72 24 209 0 30 9769 23 113086 15127 3.3 24 7 1 6 22% 6649 74273 11583 39%
c
c ---- [ result ] ------------------------------------------------------------
c
s UNSATISFIABLE
c
c ---- [ profiling ] ---------------------------------------------------------
c
c          23.38   67.33 %  search
c          23.38   67.33 %  focused
c          10.76   31.00 %  simplify
c          10.34   29.78 %  probe
c           4.07   11.72 %  sweep
c           3.93   11.33 %  vivify
c           0.80    2.30 %  factor
c           0.73    2.11 %  congruence
c           0.73    2.10 %  eliminate
c           0.57    1.65 %  substitute
c           0.51    1.48 %  preprocess
c           0.20    0.57 %  fastel
c           0.20    0.57 %  reduce
c           0.15    0.43 %  transitive
c           0.14    0.40 %  subsume
c           0.08    0.23 %  backbone
c           0.04    0.12 %  lucky
c           0.02    0.07 %  parse
c =============================================
c          34.72  100.00 %  total
c
c ---- [ statistics ] --------------------------------------------------------
c
c chronological:                         5640                5 %  conflicts
c conflicts:                           113086             3257.12 per second
c congruent:                             2822               10 %  variables
c decisions:                          2637774               23.33 per conflict
c eliminated:                           13929               47 %  variables
c factored:                              5711               19 %  variables
c fast_eliminated:                       9031               65 %  eliminated
c fast_strengthened:                       55                3 %  per strengthened
c fast_subsumed:                           63                0 %  per subsumed
c iterations:                              18                0 %  variables
c propagations:                     100590227          2897214    per second
c reductions:                              30             3770    interval
c reordered:                                5            22617    interval
c restarts:                              9769               12    interval
c strengthened:                          1655                0 %  checks
c substituted:                           9488               32 %  variables
c subsumed:                             12791                1 %  checks
c switched:                                 0                0    interval
c vivified:                             62072               13 %  checks
c
c ---- [ glue usage ] --------------------------------------------------------
c
c focused glue 1   used 137717 clauses 53.34% accumulated 53.34% tier1
c focused glue 2   used  55082 clauses 21.33% accumulated 74.68%
c focused glue 3-4 used  30339 clauses 11.75% accumulated 86.43%
c focused glue 5   used   8217 clauses  3.18% accumulated 89.61%
c focused glue 6   used   6030 clauses  2.34% accumulated 91.94% tier2
c
c ---- [ resources ] ---------------------------------------------------------
c
c maximum-resident-set-size:         25477120 bytes         24 MB
c process-time:                            35s              34.72 seconds
c
c ---- [ shutting down ] -----------------------------------------------------
c
c exit 20
